db/data/302032776422398173872224235882184031705.z3.out
-------------------
2500.814318051
